100 3033

41 31
27 17
50 40
50 40
104 94
30 20
12 2
99 89
24 14
54 44
91 81
61 51
59 49
109 99
97 87
37 27
103 93
12 2
78 68
98 88
33 23
14 4
48 38
107 97
97 87
41 31
58 48
56 46
46 36
51 41
48 38
88 78
24 14
104 94
103 93
58 48
56 46
51 41
78 68
59 49
57 47
76 66
88 78
57 47
72 62
58 48
95 85
100 90
69 59
27 17
33 23
79 69
91 81
72 62
50 40
18 8
85 75
14 4
26 16
81 71
92 82
31 21
50 40
82 72
14 4
75 65
75 65
67 57
22 12
71 61
25 15
58 48
13 3
81 71
39 29
106 96
52 42
81 71
26 16
76 66
53 43
69 59
99 89
53 43
15 5
83 73
61 51
93 83
34 24
31 21
53 43
31 21
29 19
57 47
108 98
55 45
64 54
86 76
100 90
53 43
